(set-info :Origin "This instance was generated by: BanditFuzz-- an RL fuzzer for SMT solvers" )
(set-info :Author "Joe Scott, Fed Mora, Vijay Ganesh" )
(set-info :Contact "Joe Scott, joseph.scott@uwaterloo.ca")
(set-logic QF_BV)
(declare-const bool_0 Bool)
(declare-const bool_1 Bool)
(declare-const bool_2 Bool)
(declare-const bool_3 Bool)
(declare-const bool_4 Bool)
(declare-const bv_0 (_ BitVec 32))
(declare-const bv_1 (_ BitVec 32))
(declare-const bv_2 (_ BitVec 32))
(declare-const bv_3 (_ BitVec 32))
(declare-const bv_4 (_ BitVec 32))
(assert (bvsge (bvudiv (bvshl bv_1 bv_4) (bvshl #xc8cd1095  bv_2)) (bvsrem (bvurem #x9b358bbc  #xdffca94e ) (bvnand #x0c6245a1  bv_0))))
(assert (and (not (bvule bv_3 bv_1)) (bvult (bvxor bv_0 #x971ce02a ) (bvmul bv_3 #x143efbd8 ))))
(assert (bvslt (bvurem (bvor bv_4 #x6419b029 ) (bvadd bv_2 #x959cb080 )) (bvsdiv (bvxor bv_1 #x8d4e16c1 ) (bvsrem bv_3 bv_2))))
(assert (bvslt (bvsub (bvadd bv_4 #x478f8354 ) (bvsub bv_0 bv_3)) (bvsdiv (bvxnor bv_4 #xbc1d4318 ) (bvsub #x14a5a774  #xf087f6b6 ))))
(assert (not (=> (bvult bv_2 #x94fc40ec ) (bvsle bv_0 bv_2))))
(check-sat)
(exit)
